Name: Fis0506-1
Courses: 2
Rooms: 1
Days: 5
Periods_per_day: 6
Curricula: 1
Constraints: 2

COURSES:
c0001 t000 6 4 130
c0002 t001 6 4 75

ROOMS:
B	200

CURRICULA:
q000  2 c0001 c0002

UNAVAILABILITY_CONSTRAINTS:
c0001 4 0
c0001 4 1

END.

